n_res = 4;
rc = [ 31, 34, 28, 26 ];
n_tasks = 30;
d = [ 9, 10, 6, 9, 4, 8, 3, 4, 7, 5, 2, 1, 10, 9, 1, 8, 6, 9, 2, 5, 1, 5, 10, 4, 6, 7, 8, 10, 10, 4 ];
rr = [| 3, 6, 3, 5, 3, 3, 2, 3, 6, 5, 9, 3, 6, 1, 0, 6, 10, 10, 0, 1, 0, 5, 7, 5, 3, 9, 0, 10, 0, 8
      | 0, 8, 1, 5, 9, 1, 4, 0, 0, 0, 0, 3, 3, 0, 2, 10, 8, 0, 10, 10, 0, 6, 10, 6, 4, 6, 5, 0, 0, 3
      | 0, 4, 1, 1, 1, 6, 10, 6, 7, 9, 9, 0, 8, 6, 5, 6, 6, 5, 2, 0, 6, 2, 3, 3, 3, 0, 1, 7, 9, 0
      | 5, 3, 4, 4, 7, 1, 0, 0, 10, 5, 0, 0, 4, 0, 1, 10, 5, 0, 8, 10, 3, 0, 3, 9, 10, 0, 0, 2, 2, 1 |];
suc = [ { 2 }, 
        { 1 }, 
        { 4 }, 
        { 3 }, 
        { 6 }, 
        { 5 }, 
        { 8 }, 
        { 7 }, 
        { 10 }, 
        { 9 }, 
        { 12 }, 
        { 11 }, 
        { 14 }, 
        { 13 }, 
        { 16 }, 
        { 15 }, 
        { 18 }, 
        { 17 }, 
        { 20 }, 
        { 19 }, 
        { 22 }, 
        { 21 }, 
        { 24 }, 
        { 23 }, 
        { 26 }, 
        { 25 }, 
        { 28 }, 
        { 27 }, 
        { 30 }, 
        { 29 }]; 
